(set-logic QF_S)
(declare-fun var0 () String)
(declare-fun var1 () String)
(declare-fun var2 () Int)
(declare-fun var3 () String)
(declare-fun var4 () Int)
(declare-fun var5 () Int)
(declare-fun var6 () String)
(declare-fun var7 () Int)
(assert (str.contains var0 "4@"))
(assert (str.contains (str.at var1 var2) (str.substr var3 var4 var5)))
(assert (not (str.in.re var6 re.allchar)))
(assert (< (str.len (str.at var1 var7)) (str.indexof (str.at var6 var5) (str.replace var1 var6 var1) (str.to.int var3))))
(check-sat)